25
237 -501
-285 394
-404 -196
11 -159
391 -229
366 -328
-337 397
-418 451
258 -333
-17 320
-430 310
-361 459
310 -362
165 451
540 56
-469 532
-537 -194
-463 -482
83 -119
348 -310
-377 56
-111 70
85 244
294 172
-326 -488